Optimal - objective value 5.92027688
      0 C0000000           49800                      -0
      1 C0000001           49800                      -0
      2 C0000002               1                      -0
      3 C0000003               2                      -0
      4 C0000004               3                      -0
      5 C0000005               1                      -0
      6 C0000006               1                      -0
      7 C0000007               1                      -0
      8 C0000008               0                      -0
      9 C0000009               0                      -0
     10 C0000010               1                      -0
     11 C0000011               0                      -0
     12 C0000012               0                      -0
     13 C0000013               2                      -0
     14 C0000014               0                      -0
     15 C0000015               1                      -0
     16 C0000016               0                      -0
     17 C0000017               1                      -0
     18 C0000018               0                      -0
     19 C0000019               1                      -0
     20 C0000020               0                      -0
     21 C0000021               0                      -0
     22 C0000022               0                      -0
     23 C0000023               1                      -0
     24 C0000024               1                      -0
     25 C0000025               0                      -0
     26 C0000026               1                      -0
     27 C0000027               0                      -0
     28 C0000028               0                      -0
     29 C0000029               0                      -0
     30 C0000030               0                      -0
     31 C0000031               0                      -0
     32 C0000032               0                      -0
     33 C0000033               0                      -0
     34 C0000034               0                      -0
     35 C0000035               0                      -0
     36 C0000036               0                      -0
     37 C0000037               0                      -0
     38 C0000038               0                      -0
     39 C0000039               1                      -0
     40 C0000040               0                      -0
     41 C0000041               1                      -0
     42 C0000042               0                      -0
     43 C0000043               0                      -0
     44 C0000044               0                      -0
     45 C0000045               0                      -0
     46 C0000046               0                      -0
     47 C0000047               0                      -0
     48 C0000048               0                      -0
     49 C0000049               0                      -0
     50 C0000050               0                      -0
     51 C0000051               0                      -0
     52 C0000052               0                      -0
     53 C0000053               1                      -0
     54 C0000054               0                      -0
     55 C0000055               0                      -0
     56 C0000056               0                      -0
     57 C0000057               0                      -0
     58 C0000058               0                      -0
     59 C0000059               0                      -0
     60 C0000060               0                      -0
     61 C0000061               0                      -0
     62 C0000062               0                      -0
     63 C0000063               0                      -0
     64 C0000064               0                      -0
     65 C0000065               0                      -0
     66 C0000066               0                      -0
     67 C0000067               0                      -0
     68 C0000068               0                      -0
     69 C0000069               0                      -0
     70 C0000070               0                      -0
     71 C0000071               0                      -0
     72 C0000072               0                      -0
     73 C0000073               0                      -0
     74 C0000074               1                      -0
     75 C0000075               0                      -0
     76 C0000076               0                      -0
     77 C0000077               0                      -0
     78 C0000078               0                      -0
     79 C0000079               0                      -0
     80 C0000080               0                      -0
     81 C0000081               0                      -0
     82 C0000082               0                      -0
     83 C0000083               0                      -0
     84 C0000084               0                      -0
     85 C0000085               0                      -0
     86 C0000086               0                      -0
     87 C0000087               0                      -0
     88 C0000088               0                      -0
     89 C0000089               0                      -0
     90 C0000090               0                      -0
     91 C0000091               0                      -0
     92 C0000092               0                      -0
     93 C0000093               0                      -0
     94 C0000094               1                      -0
     95 C0000095               0                      -0
     96 C0000096               0                      -0
     97 C0000097               0                      -0
     98 C0000098               0                      -0
     99 C0000099               0                      -0
    100 C0000100               0                      -0
    101 C0000101               0                      -0
    102 C0000102               0                      -0
    103 C0000103               0                      -0
    104 C0000104               0                      -0
    105 C0000105               0                      -0
    106 C0000106               0                      -0
    107 C0000107               0                      -0
    108 C0000108               0                      -0
    109 C0000109               0                      -0
    110 C0000110               1                      -0
    111 C0000111               0                      -0
    112 C0000112               0                      -0
    113 C0000113               0                      -0
    114 C0000114               0                      -0
    115 C0000115               0                      -0
    116 C0000116               0                      -0
    117 C0000117               0                      -0
    118 C0000118               0                      -0
    119 C0000119               0                      -0
    120 C0000120               0                      -0
    121 C0000121               0                      -0
    122 C0000122               0                      -0
    123 C0000123               0                      -0
    124 C0000124               0                      -0
    125 C0000125               0                      -0
    126 C0000126               0                      -0
    127 C0000127               0                      -0
    128 C0000128               0                      -0
    129 C0000129               0                      -0
    130 C0000130               0                      -0
    131 C0000131               0                      -0
    132 C0000132               0                      -0
    133 C0000133               0                      -0
    134 C0000134               0                      -0
    135 C0000135               0                      -0
    136 C0000136               0                      -0
    137 C0000137               0                      -0
    138 C0000138               0                      -0
    139 C0000139               0                      -0
    140 C0000140               0                      -0
    141 C0000141               1                      -0
    142 C0000142               1                      -0
    143 C0000143               0                      -0
    144 C0000144               0                      -0
    145 C0000145               0                      -0
    146 C0000146               0                      -0
    147 C0000147               0                      -0
    148 C0000148               0                      -0
    149 C0000149               0                      -0
    150 C0000150               0                      -0
    151 C0000151               0                      -0
    152 C0000152               0                      -0
    153 C0000153               0                      -0
    154 C0000154               0                      -0
    155 C0000155               0                      -0
    156 C0000156               0                      -0
    157 C0000157               0                      -0
    158 C0000158               0                      -0
    159 C0000159               0                      -0
    160 C0000160               0                      -0
    161 C0000161               0                      -0
    162 C0000162               0                      -0
    163 C0000163               0                      -0
    164 C0000164               0                      -0
    165 C0000165               0                      -0
    166 C0000166               0                      -0
    167 C0000167               0                      -0
    168 C0000168               0                      -0
    169 C0000169               0                      -0
    170 C0000170               0                      -0
    171 C0000171               0                      -0
    172 C0000172               0                      -0
    173 C0000173               0                      -0
    174 C0000174               0                      -0
    175 C0000175               0                      -0
    176 C0000176               0                      -0
    177 C0000177               0                      -0
    178 C0000178               0                      -0
    179 C0000179               0                      -0
    180 C0000180               0                      -0
    181 C0000181               1                      -0
    182 C0000182               0                      -0
    183 C0000183               0                      -0
    184 C0000184               0                      -0
    185 C0000185               0                      -0
    186 C0000186               0                      -0
    187 C0000187               0                      -0
    188 C0000188               0                      -0
    189 C0000189               0                      -0
    190 C0000190               0                      -0
    191 C0000191               0                      -0
    192 C0000192               0                      -0
    193 C0000193               0                      -0
    194 C0000194               0                      -0
    195 C0000195           98.88                      -0
    196 C0000196          137.86                      -0
    197 C0000197               7                      -0
    198 C0000198               7                      -0
    199 C0000199               8                      -0
    200 C0000200               6                      -0
    201 C0000201               7                      -0
    202 C0000202               6                      -0
    203 C0000203               6                      -0
    204 C0000204               8                      -0
    205 C0000205               8                      -0
    206 C0000206               6                      -0
    207 C0000207               6                      -0
    208 C0000208               5                      -0
    209 C0000209               5                      -0
    210 C0000210               7                      -0
    211 C0000211               7                      -0
    212 C0000212               6                      -0
    213 C0000213               6                      -0
    214 C0000214               5                      -0
    215 C0000215               6                      -0
    216 C0000216               6                      -0
    217 C0000217               7                      -0
    218 C0000218               7                      -0
    219 C0000219               5                      -0
    220 C0000220               7                      -0
    221 C0000221               6                      -0
    222 C0000222               7                      -0
    223 C0000223               6                      -0
    224 C0000224               4                      -0
    225 C0000225               6                      -0
    226 C0000226               6                      -0
    227 C0000227               7                      -0
    228 C0000228               7                      -0
    229 C0000229               6                      -0
    230 C0000230               6                      -0
    231 C0000231               6                      -0
    232 C0000232               6                      -0
    233 C0000233               5                      -0
    234 C0000234               7                      -0
    235 C0000235               5                      -0
    236 C0000236               6                      -0
    237 C0000237               6                      -0
    238 C0000238               6                      -0
    239 C0000239               6                      -0
    240 C0000240               5                      -0
    241 C0000241               6                      -0
    242 C0000242               5                      -0
    243 C0000243               6                      -0
    244 C0000244               6                      -0
    245 C0000245               5                      -0
    246 C0000246               5                      -0
    247 C0000247               6                      -0
    248 C0000248               7                      -0
    249 C0000249               7                      -0
    250 C0000250               6                      -0
    251 C0000251               6                      -0
    252 C0000252               7                      -0
    253 C0000253               6                      -0
    254 C0000254               6                      -0
    255 C0000255               7                      -0
    256 C0000256               5                      -0
    257 C0000257               5                      -0
    258 C0000258               7                      -0
    259 C0000259               6                      -0
    260 C0000260               5                      -0
    261 C0000261               6                      -0
    262 C0000262               6                      -0
    263 C0000263               6                      -0
    264 C0000264               6                      -0
    265 C0000265               6                      -0
    266 C0000266               5                      -0
    267 C0000267               5                      -0
    268 C0000268               6                      -0
    269 C0000269               5                      -0
    270 C0000270               6                      -0
    271 C0000271               5                      -0
    272 C0000272               6                      -0
    273 C0000273               6                      -0
    274 C0000274               6                      -0
    275 C0000275               7                      -0
    276 C0000276               5                      -0
    277 C0000277               5                      -0
    278 C0000278               7                      -0
    279 C0000279               7                      -0
    280 C0000280               7                      -0
    281 C0000281               5                      -0
    282 C0000282               6                      -0
      0 X0000000               0              -0.1870369
      1 X0000001               0              0.63347347
      2 X0000002               0              0.63347347
      3 X0000003               0               0.5199783
      4 X0000004               0               0.5199783
      5 X0000005               0              0.97403899
      6 X0000006               0              0.53842898
      7 X0000007               0              0.53842898
      8 X0000008               0              0.25828626
      9 X0000009               0              0.25828626
     10 X0000010               1                       1
     11 X0000011               0              0.43055405
     12 X0000012               0              0.43055405
     13 X0000013               0               0.4531225
     14 X0000014               0               0.4531225
     15 X0000015               0               0.4306344
     16 X0000016               0               0.4306344
     17 X0000017               0              0.32909714
     18 X0000018               0              0.32909714
     19 X0000019               0              0.64140485
     20 X0000020               0              0.64140485
     21 X0000021               0              0.30860617
     22 X0000022               0              0.30860617
     23 X0000023               0              0.63736069
     24 X0000024               0              0.19980484
     25 X0000025               0              0.19980484
     26 X0000026               0            -0.054095414
     27 X0000027               0            -0.054095414
     28 X0000028               0              0.10949579
     29 X0000029               0             0.018465882
     30 X0000030               0             0.018465882
     31 X0000031               0              0.26023953
     32 X0000032               0              0.66865124
     33 X0000033               0              0.66865124
     34 X0000034               0              0.28080597
     35 X0000035               0              0.17031536
     36 X0000036               0              0.17031536
     37 X0000037               0              0.48687007
     38 X0000038               0              0.48687007
     39 X0000039               0              0.43577978
     40 X0000040               0              0.43577978
     41 X0000041               0              0.52178453
     42 X0000042               0              0.52178453
     43 X0000043               0              0.58890042
     44 X0000044               0              0.58890042
     45 X0000045               0              0.63070727
     46 X0000046               0              0.63070727
     47 X0000047               0              0.81407369
     48 X0000048               0              -0.1584625
     49 X0000049               0                0.867413
     50 X0000050               0              0.63685978
     51 X0000051               0              0.48808704
     52 X0000052               0              0.48808704
     53 X0000053               0              0.16594394
     54 X0000054               0              0.16594394
     55 X0000055               0              0.19356313
     56 X0000056               0              0.75993547
     57 X0000057               1              0.75993547
     58 X0000058               0              0.08327224
     59 X0000059               0              0.08327224
     60 X0000060               0              0.64085409
     61 X0000061               0              0.64085409
     62 X0000062               0              0.27115256
     63 X0000063               0              0.27115256
     64 X0000064               0               0.2214061
     65 X0000065               0             -0.12138263
     66 X0000066               0              0.47939566
     67 X0000067               0              0.47939566
     68 X0000068               0             0.095687594
     69 X0000069               0             0.095687594
     70 X0000070               0              0.40791001
     71 X0000071               0              0.40791001
     72 X0000072               0              0.46162735
     73 X0000073               0              0.46162735
     74 X0000074               0              0.65917928
     75 X0000075               1              0.65917928
     76 X0000076               0              0.41897628
     77 X0000077               0              0.41897628
     78 X0000078               0             0.076844635
     79 X0000079               0             0.076844635
     80 X0000080               0              0.24135954
     81 X0000081               0              0.24135954
     82 X0000082               0              0.35152707
     83 X0000083               0              0.35152707
     84 X0000084               0              0.64005371
     85 X0000085               0              0.64005371
     86 X0000086               0              0.34910132
     87 X0000087               0              0.34910132
     88 X0000088               0              0.61973078
     89 X0000089               0              0.61973078
     90 X0000090               0              0.53245344
     91 X0000091               0              0.53245344
     92 X0000092               0               0.5472041
     93 X0000093               0               0.5472041
     94 X0000094               0              0.34255129
     95 X0000095               0              0.34255129
     96 X0000096               0              0.30572715
     97 X0000097               0              0.30572715
     98 X0000098               0              0.22377535
     99 X0000099               0              0.22377535
    100 X0000100               0              0.21465385
    101 X0000101               0              0.21465385
    102 X0000102               0              0.17761373
    103 X0000103               0              0.90825439
    104 X0000104               0              0.56819564
    105 X0000105               0              0.56819564
    106 X0000106               0              0.75511053
    107 X0000107               0              0.80838751
    108 X0000108               0              0.24159222
    109 X0000109               0              0.24159222
    110 X0000110               0              0.21681585
    111 X0000111               0              0.55043556
    112 X0000112               0              0.55043556
    113 X0000113               0              0.25971712
    114 X0000114               0               0.5382582
    115 X0000115               0               0.5382582
    116 X0000116               0              0.91591618
    117 X0000117               0              0.68640749
    118 X0000118               1              0.68640749
    119 X0000119               0             -0.12914488
    120 X0000120               0              0.28184898
    121 X0000121               0              0.28184898
    122 X0000122               0              0.50162435
    123 X0000123               0              0.50162435
    124 X0000124               0              0.22127406
    125 X0000125               0              0.22127406
    126 X0000126               0              0.69255186
    127 X0000127               0              0.69255186
    128 X0000128               0             0.048383666
    129 X0000129               0             0.048383666
    130 X0000130               1              0.18559532
    131 X0000131               0              0.80684882
    132 X0000132               1              0.80684882
    133 X0000133               0              0.57304086
    134 X0000134               0              0.57304086
    135 X0000135               0               0.5876462
    136 X0000136               1               0.5876462
    137 X0000137               0              0.66192377
    138 X0000138               0              0.69657962
    139 X0000139               0              0.69657962
    140 X0000140               0              0.49984607
    141 X0000141               0              0.49984607
    142 X0000142               0               0.5631763
    143 X0000143               0               0.5631763
    144 X0000144               0              0.96387496
    145 X0000145               0              0.62625872
    146 X0000146               0              0.62625872
    147 X0000147               0                0.549726
    148 X0000148               0                0.549726
    149 X0000149               0              0.84861899
    150 X0000150               0              0.29643273
    151 X0000151               0              0.29643273
    152 X0000152               0              0.42018841
    153 X0000153               0              0.42018841
    154 X0000154               0              0.52159824
    155 X0000155               0              0.52159824
    156 X0000156               0             -0.12332753
    157 X0000157               0              0.83742888
    158 X0000158               0              0.56489065
    159 X0000159               0              0.56489065
    160 X0000160               0              0.54351748
    161 X0000161               0              0.54351748
    162 X0000162               0              0.54166468
    163 X0000163               0              0.54166468
    164 X0000164               0              0.18055665
    165 X0000165               0              0.18055665
    166 X0000166               0               0.8532612
    167 X0000167               0              0.50932432
    168 X0000168               0              0.50932432
    169 X0000169               0              0.61646715
    170 X0000170               0              0.61646715
    171 X0000171               0              0.32986576
    172 X0000172               0              0.32986576
    173 X0000173               0              0.55347653
    174 X0000174               0              0.55347653
    175 X0000175               0              0.17668572
    176 X0000176               0              0.17668572
    177 X0000177               0              0.14523677
    178 X0000178               0              0.14523677
    179 X0000179               0              0.51473391
    180 X0000180               0              0.51473391
    181 X0000181               0              0.35601546
    182 X0000182               0              0.35601546
    183 X0000183               0               0.6058145
    184 X0000184               0               0.6058145
    185 X0000185               0              0.36300198
    186 X0000186               0              0.36300198
    187 X0000187               0              0.73904951
    188 X0000188               0              0.57596045
    189 X0000189               0              0.57596045
    190 X0000190               0             -0.24970299
    191 X0000191               0               0.6338512
    192 X0000192               0              0.65417892
    193 X0000193               0              0.65417892
    194 X0000194               0              0.31885718
    195 X0000195               0              0.31885718
    196 X0000196               0              0.55521022
    197 X0000197               0              0.55521022
    198 X0000198               0              0.78122512
    199 X0000199               0              0.76554669
    200 X0000200               0              0.18359557
    201 X0000201               0              0.18359557
    202 X0000202               0              0.76357047
    203 X0000203               0              0.51363012
    204 X0000204               0              0.51363012
    205 X0000205               0                0.340578
    206 X0000206               0                0.340578
    207 X0000207               0              0.34238947
    208 X0000208               0              0.34238947
    209 X0000209               0              0.44653626
    210 X0000210               0              0.44653626
    211 X0000211               0             0.057609248
    212 X0000212               0             0.057609248
    213 X0000213               0               0.2984772
    214 X0000214               0               0.2984772
    215 X0000215               0             -0.12545201
    216 X0000216               0              0.35275951
    217 X0000217               0              0.35275951
    218 X0000218               0              0.41672664
    219 X0000219               0              0.41672664
    220 X0000220               0               0.7016592
    221 X0000221               0               0.7016592
    222 X0000222               0              0.19566632
    223 X0000223               0              0.19566632
    224 X0000224               0             -0.14331892
    225 X0000225               0               0.1933347
    226 X0000226               0              0.18723406
    227 X0000227               0              0.18723406
    228 X0000228               0              0.40681292
    229 X0000229               0              0.40681292
    230 X0000230               0              0.43570957
    231 X0000231               0              0.43570957
    232 X0000232               0              -0.1829248
    233 X0000233               0              -0.1829248
    234 X0000234               0              0.39942075
    235 X0000235               0              0.39942075
    236 X0000236               0              0.14360214
    237 X0000237               0              0.14360214
    238 X0000238               0              0.70704856
    239 X0000239               0              0.42861942
    240 X0000240               0              0.42861942
    241 X0000241               0              0.64157128
    242 X0000242               0              0.64157128
    243 X0000243               0             -0.18614087
    244 X0000244               0              0.49160437
    245 X0000245               0              0.49160437
    246 X0000246               0              0.28801396
    247 X0000247               0              0.28801396
    248 X0000248               0              0.70138748
    249 X0000249               1              0.70138748
    250 X0000250               0              0.68601505
    251 X0000251               0              0.68601505
    252 X0000252               0              0.03165473
    253 X0000253               0              0.03165473
    254 X0000254               0             -0.14732623
    255 X0000255               0              0.50414748
    256 X0000256               0              0.50414748
    257 X0000257               0              0.42267333
    258 X0000258               0              0.42267333
    259 X0000259               0              0.45348707
    260 X0000260               0              0.45348707
    261 X0000261               0              0.21869046
    262 X0000262               0              0.21869046
    263 X0000263               0              0.58897585
    264 X0000264               0              0.58897585
    265 X0000265               0              0.66304632
    266 X0000266               0               0.1923022
    267 X0000267               0               0.1923022
    268 X0000268               0              0.31943486
    269 X0000269               0              0.31943486
    270 X0000270               0              0.26840399
    271 X0000271               0              0.26840399
    272 X0000272               0              0.25660554
    273 X0000273               0              0.25660554
    274 X0000274               0              0.21945416
    275 X0000275               0              0.21945416
    276 X0000276               0              0.22623036
    277 X0000277               0              0.22623036
    278 X0000278               0              0.52944264
    279 X0000279               0              0.52944264
    280 X0000280               0              0.45620685
    281 X0000281               0              0.45620685
    282 X0000282               0              0.18114683
    283 X0000283               1              0.53327683
    284 X0000284               0              0.53327683
    285 X0000285               0              0.29742281
    286 X0000286               0              0.29742281
